p cnf 512 1535
-1 0
-66 2 34 0
-66 -2 -34 0
66 -2 34 0
66 2 -34 0
-67 66 1 0
-67 -66 -1 0
67 -66 1 0
67 66 -1 0
-68 2 0
-68 34 0
68 -2 -34 0
-69 1 0
-69 66 0
69 -1 -66 0
70 -68 0
70 -69 0
-70 68 69 0
-71 3 35 0
-71 -3 -35 0
71 -3 35 0
71 3 -35 0
-72 71 70 0
-72 -71 -70 0
72 -71 70 0
72 71 -70 0
-73 3 0
-73 35 0
73 -3 -35 0
-74 70 0
-74 71 0
74 -70 -71 0
75 -73 0
75 -74 0
-75 73 74 0
-76 4 36 0
-76 -4 -36 0
76 -4 36 0
76 4 -36 0
-77 76 75 0
-77 -76 -75 0
77 -76 75 0
77 76 -75 0
-78 4 0
-78 36 0
78 -4 -36 0
-79 75 0
-79 76 0
79 -75 -76 0
80 -78 0
80 -79 0
-80 78 79 0
-81 5 37 0
-81 -5 -37 0
81 -5 37 0
81 5 -37 0
-82 81 80 0
-82 -81 -80 0
82 -81 80 0
82 81 -80 0
-83 5 0
-83 37 0
83 -5 -37 0
-84 80 0
-84 81 0
84 -80 -81 0
85 -83 0
85 -84 0
-85 83 84 0
-86 6 38 0
-86 -6 -38 0
86 -6 38 0
86 6 -38 0
-87 86 85 0
-87 -86 -85 0
87 -86 85 0
87 86 -85 0
-88 6 0
-88 38 0
88 -6 -38 0
-89 85 0
-89 86 0
89 -85 -86 0
90 -88 0
90 -89 0
-90 88 89 0
-91 7 39 0
-91 -7 -39 0
91 -7 39 0
91 7 -39 0
-92 91 90 0
-92 -91 -90 0
92 -91 90 0
92 91 -90 0
-93 7 0
-93 39 0
93 -7 -39 0
-94 90 0
-94 91 0
94 -90 -91 0
95 -93 0
95 -94 0
-95 93 94 0
-96 8 40 0
-96 -8 -40 0
96 -8 40 0
96 8 -40 0
-97 96 95 0
-97 -96 -95 0
97 -96 95 0
97 96 -95 0
-98 8 0
-98 40 0
98 -8 -40 0
-99 95 0
-99 96 0
99 -95 -96 0
100 -98 0
100 -99 0
-100 98 99 0
-101 9 41 0
-101 -9 -41 0
101 -9 41 0
101 9 -41 0
-102 101 100 0
-102 -101 -100 0
102 -101 100 0
102 101 -100 0
-103 9 0
-103 41 0
103 -9 -41 0
-104 100 0
-104 101 0
104 -100 -101 0
105 -103 0
105 -104 0
-105 103 104 0
-106 10 42 0
-106 -10 -42 0
106 -10 42 0
106 10 -42 0
-107 106 105 0
-107 -106 -105 0
107 -106 105 0
107 106 -105 0
-108 10 0
-108 42 0
108 -10 -42 0
-109 105 0
-109 106 0
109 -105 -106 0
110 -108 0
110 -109 0
-110 108 109 0
-111 11 43 0
-111 -11 -43 0
111 -11 43 0
111 11 -43 0
-112 111 110 0
-112 -111 -110 0
112 -111 110 0
112 111 -110 0
-113 11 0
-113 43 0
113 -11 -43 0
-114 110 0
-114 111 0
114 -110 -111 0
115 -113 0
115 -114 0
-115 113 114 0
-116 12 44 0
-116 -12 -44 0
116 -12 44 0
116 12 -44 0
-117 116 115 0
-117 -116 -115 0
117 -116 115 0
117 116 -115 0
-118 12 0
-118 44 0
118 -12 -44 0
-119 115 0
-119 116 0
119 -115 -116 0
120 -118 0
120 -119 0
-120 118 119 0
-121 13 45 0
-121 -13 -45 0
121 -13 45 0
121 13 -45 0
-122 121 120 0
-122 -121 -120 0
122 -121 120 0
122 121 -120 0
-123 13 0
-123 45 0
123 -13 -45 0
-124 120 0
-124 121 0
124 -120 -121 0
125 -123 0
125 -124 0
-125 123 124 0
-126 14 46 0
-126 -14 -46 0
126 -14 46 0
126 14 -46 0
-127 126 125 0
-127 -126 -125 0
127 -126 125 0
127 126 -125 0
-128 14 0
-128 46 0
128 -14 -46 0
-129 125 0
-129 126 0
129 -125 -126 0
130 -128 0
130 -129 0
-130 128 129 0
-131 15 47 0
-131 -15 -47 0
131 -15 47 0
131 15 -47 0
-132 131 130 0
-132 -131 -130 0
132 -131 130 0
132 131 -130 0
-133 15 0
-133 47 0
133 -15 -47 0
-134 130 0
-134 131 0
134 -130 -131 0
135 -133 0
135 -134 0
-135 133 134 0
-136 16 48 0
-136 -16 -48 0
136 -16 48 0
136 16 -48 0
-137 136 135 0
-137 -136 -135 0
137 -136 135 0
137 136 -135 0
-138 16 0
-138 48 0
138 -16 -48 0
-139 135 0
-139 136 0
139 -135 -136 0
140 -138 0
140 -139 0
-140 138 139 0
-141 17 49 0
-141 -17 -49 0
141 -17 49 0
141 17 -49 0
-142 141 140 0
-142 -141 -140 0
142 -141 140 0
142 141 -140 0
-143 17 0
-143 49 0
143 -17 -49 0
-144 140 0
-144 141 0
144 -140 -141 0
145 -143 0
145 -144 0
-145 143 144 0
-146 18 50 0
-146 -18 -50 0
146 -18 50 0
146 18 -50 0
-147 146 145 0
-147 -146 -145 0
147 -146 145 0
147 146 -145 0
-148 18 0
-148 50 0
148 -18 -50 0
-149 145 0
-149 146 0
149 -145 -146 0
150 -148 0
150 -149 0
-150 148 149 0
-151 19 51 0
-151 -19 -51 0
151 -19 51 0
151 19 -51 0
-152 151 150 0
-152 -151 -150 0
152 -151 150 0
152 151 -150 0
-153 19 0
-153 51 0
153 -19 -51 0
-154 150 0
-154 151 0
154 -150 -151 0
155 -153 0
155 -154 0
-155 153 154 0
-156 20 52 0
-156 -20 -52 0
156 -20 52 0
156 20 -52 0
-157 156 155 0
-157 -156 -155 0
157 -156 155 0
157 156 -155 0
-158 20 0
-158 52 0
158 -20 -52 0
-159 155 0
-159 156 0
159 -155 -156 0
160 -158 0
160 -159 0
-160 158 159 0
-161 21 53 0
-161 -21 -53 0
161 -21 53 0
161 21 -53 0
-162 161 160 0
-162 -161 -160 0
162 -161 160 0
162 161 -160 0
-163 21 0
-163 53 0
163 -21 -53 0
-164 160 0
-164 161 0
164 -160 -161 0
165 -163 0
165 -164 0
-165 163 164 0
-166 22 54 0
-166 -22 -54 0
166 -22 54 0
166 22 -54 0
-167 166 165 0
-167 -166 -165 0
167 -166 165 0
167 166 -165 0
-168 22 0
-168 54 0
168 -22 -54 0
-169 165 0
-169 166 0
169 -165 -166 0
170 -168 0
170 -169 0
-170 168 169 0
-171 23 55 0
-171 -23 -55 0
171 -23 55 0
171 23 -55 0
-172 171 170 0
-172 -171 -170 0
172 -171 170 0
172 171 -170 0
-173 23 0
-173 55 0
173 -23 -55 0
-174 170 0
-174 171 0
174 -170 -171 0
175 -173 0
175 -174 0
-175 173 174 0
-176 24 56 0
-176 -24 -56 0
176 -24 56 0
176 24 -56 0
-177 176 175 0
-177 -176 -175 0
177 -176 175 0
177 176 -175 0
-178 24 0
-178 56 0
178 -24 -56 0
-179 175 0
-179 176 0
179 -175 -176 0
180 -178 0
180 -179 0
-180 178 179 0
-181 25 57 0
-181 -25 -57 0
181 -25 57 0
181 25 -57 0
-182 181 180 0
-182 -181 -180 0
182 -181 180 0
182 181 -180 0
-183 25 0
-183 57 0
183 -25 -57 0
-184 180 0
-184 181 0
184 -180 -181 0
185 -183 0
185 -184 0
-185 183 184 0
-186 26 58 0
-186 -26 -58 0
186 -26 58 0
186 26 -58 0
-187 186 185 0
-187 -186 -185 0
187 -186 185 0
187 186 -185 0
-188 26 0
-188 58 0
188 -26 -58 0
-189 185 0
-189 186 0
189 -185 -186 0
190 -188 0
190 -189 0
-190 188 189 0
-191 27 59 0
-191 -27 -59 0
191 -27 59 0
191 27 -59 0
-192 191 190 0
-192 -191 -190 0
192 -191 190 0
192 191 -190 0
-193 27 0
-193 59 0
193 -27 -59 0
-194 190 0
-194 191 0
194 -190 -191 0
195 -193 0
195 -194 0
-195 193 194 0
-196 28 60 0
-196 -28 -60 0
196 -28 60 0
196 28 -60 0
-197 196 195 0
-197 -196 -195 0
197 -196 195 0
197 196 -195 0
-198 28 0
-198 60 0
198 -28 -60 0
-199 195 0
-199 196 0
199 -195 -196 0
200 -198 0
200 -199 0
-200 198 199 0
-201 29 61 0
-201 -29 -61 0
201 -29 61 0
201 29 -61 0
-202 201 200 0
-202 -201 -200 0
202 -201 200 0
202 201 -200 0
-203 29 0
-203 61 0
203 -29 -61 0
-204 200 0
-204 201 0
204 -200 -201 0
205 -203 0
205 -204 0
-205 203 204 0
-206 30 62 0
-206 -30 -62 0
206 -30 62 0
206 30 -62 0
-207 206 205 0
-207 -206 -205 0
207 -206 205 0
207 206 -205 0
-208 30 0
-208 62 0
208 -30 -62 0
-209 205 0
-209 206 0
209 -205 -206 0
210 -208 0
210 -209 0
-210 208 209 0
-211 31 63 0
-211 -31 -63 0
211 -31 63 0
211 31 -63 0
-212 211 210 0
-212 -211 -210 0
212 -211 210 0
212 211 -210 0
-213 31 0
-213 63 0
213 -31 -63 0
-214 210 0
-214 211 0
214 -210 -211 0
215 -213 0
215 -214 0
-215 213 214 0
-216 32 64 0
-216 -32 -64 0
216 -32 64 0
216 32 -64 0
-217 216 215 0
-217 -216 -215 0
217 -216 215 0
217 216 -215 0
-218 32 0
-218 64 0
218 -32 -64 0
-219 215 0
-219 216 0
219 -215 -216 0
220 -218 0
220 -219 0
-220 218 219 0
-221 33 65 0
-221 -33 -65 0
221 -33 65 0
221 33 -65 0
-222 221 220 0
-222 -221 -220 0
222 -221 220 0
222 221 -220 0
-223 33 0
-223 65 0
223 -33 -65 0
-224 220 0
-224 221 0
224 -220 -221 0
225 -223 0
225 -224 0
-225 223 224 0
-226 2 34 0
-226 -2 -34 0
226 -2 34 0
226 2 -34 0
-227 3 35 0
-227 -3 -35 0
227 -3 35 0
227 3 -35 0
-228 4 36 0
-228 -4 -36 0
228 -4 36 0
228 4 -36 0
-229 5 37 0
-229 -5 -37 0
229 -5 37 0
229 5 -37 0
-230 6 38 0
-230 -6 -38 0
230 -6 38 0
230 6 -38 0
-231 7 39 0
-231 -7 -39 0
231 -7 39 0
231 7 -39 0
-232 8 40 0
-232 -8 -40 0
232 -8 40 0
232 8 -40 0
-233 9 41 0
-233 -9 -41 0
233 -9 41 0
233 9 -41 0
-234 10 42 0
-234 -10 -42 0
234 -10 42 0
234 10 -42 0
-235 11 43 0
-235 -11 -43 0
235 -11 43 0
235 11 -43 0
-236 12 44 0
-236 -12 -44 0
236 -12 44 0
236 12 -44 0
-237 13 45 0
-237 -13 -45 0
237 -13 45 0
237 13 -45 0
-238 14 46 0
-238 -14 -46 0
238 -14 46 0
238 14 -46 0
-239 15 47 0
-239 -15 -47 0
239 -15 47 0
239 15 -47 0
-240 16 48 0
-240 -16 -48 0
240 -16 48 0
240 16 -48 0
-241 17 49 0
-241 -17 -49 0
241 -17 49 0
241 17 -49 0
-242 18 50 0
-242 -18 -50 0
242 -18 50 0
242 18 -50 0
-243 19 51 0
-243 -19 -51 0
243 -19 51 0
243 19 -51 0
-244 20 52 0
-244 -20 -52 0
244 -20 52 0
244 20 -52 0
-245 21 53 0
-245 -21 -53 0
245 -21 53 0
245 21 -53 0
-246 22 54 0
-246 -22 -54 0
246 -22 54 0
246 22 -54 0
-247 23 55 0
-247 -23 -55 0
247 -23 55 0
247 23 -55 0
-248 24 56 0
-248 -24 -56 0
248 -24 56 0
248 24 -56 0
-249 25 57 0
-249 -25 -57 0
249 -25 57 0
249 25 -57 0
-250 26 58 0
-250 -26 -58 0
250 -26 58 0
250 26 -58 0
-251 27 59 0
-251 -27 -59 0
251 -27 59 0
251 27 -59 0
-252 28 60 0
-252 -28 -60 0
252 -28 60 0
252 28 -60 0
-253 29 61 0
-253 -29 -61 0
253 -29 61 0
253 29 -61 0
-254 30 62 0
-254 -30 -62 0
254 -30 62 0
254 30 -62 0
-255 31 63 0
-255 -31 -63 0
255 -31 63 0
255 31 -63 0
-256 32 64 0
-256 -32 -64 0
256 -32 64 0
256 32 -64 0
-257 33 65 0
-257 -33 -65 0
257 -33 65 0
257 33 -65 0
-258 2 0
-258 34 0
258 -2 -34 0
-259 3 0
-259 35 0
259 -3 -35 0
-260 4 0
-260 36 0
260 -4 -36 0
-261 5 0
-261 37 0
261 -5 -37 0
-262 6 0
-262 38 0
262 -6 -38 0
-263 7 0
-263 39 0
263 -7 -39 0
-264 8 0
-264 40 0
264 -8 -40 0
-265 9 0
-265 41 0
265 -9 -41 0
-266 10 0
-266 42 0
266 -10 -42 0
-267 11 0
-267 43 0
267 -11 -43 0
-268 12 0
-268 44 0
268 -12 -44 0
-269 13 0
-269 45 0
269 -13 -45 0
-270 14 0
-270 46 0
270 -14 -46 0
-271 15 0
-271 47 0
271 -15 -47 0
-272 16 0
-272 48 0
272 -16 -48 0
-273 17 0
-273 49 0
273 -17 -49 0
-274 18 0
-274 50 0
274 -18 -50 0
-275 19 0
-275 51 0
275 -19 -51 0
-276 20 0
-276 52 0
276 -20 -52 0
-277 21 0
-277 53 0
277 -21 -53 0
-278 22 0
-278 54 0
278 -22 -54 0
-279 23 0
-279 55 0
279 -23 -55 0
-280 24 0
-280 56 0
280 -24 -56 0
-281 25 0
-281 57 0
281 -25 -57 0
-282 26 0
-282 58 0
282 -26 -58 0
-283 27 0
-283 59 0
283 -27 -59 0
-284 28 0
-284 60 0
284 -28 -60 0
-285 29 0
-285 61 0
285 -29 -61 0
-286 30 0
-286 62 0
286 -30 -62 0
-287 31 0
-287 63 0
287 -31 -63 0
-288 32 0
-288 64 0
288 -32 -64 0
-289 33 0
-289 65 0
289 -33 -65 0
-290 226 1 0
-290 -226 -1 0
290 -226 1 0
290 226 -1 0
-291 290 1 0
-291 -290 -1 0
291 -290 1 0
291 290 -1 0
-292 226 0
-292 1 0
292 -226 -1 0
-293 1 0
-293 290 0
293 -1 -290 0
294 -292 0
294 -293 0
-294 292 293 0
-295 227 258 0
-295 -227 -258 0
295 -227 258 0
295 227 -258 0
-296 295 294 0
-296 -295 -294 0
296 -295 294 0
296 295 -294 0
-297 227 0
-297 258 0
297 -227 -258 0
-298 294 0
-298 295 0
298 -294 -295 0
299 -297 0
299 -298 0
-299 297 298 0
-300 228 259 0
-300 -228 -259 0
300 -228 259 0
300 228 -259 0
-301 300 299 0
-301 -300 -299 0
301 -300 299 0
301 300 -299 0
-302 228 0
-302 259 0
302 -228 -259 0
-303 299 0
-303 300 0
303 -299 -300 0
304 -302 0
304 -303 0
-304 302 303 0
-305 229 260 0
-305 -229 -260 0
305 -229 260 0
305 229 -260 0
-306 305 304 0
-306 -305 -304 0
306 -305 304 0
306 305 -304 0
-307 229 0
-307 260 0
307 -229 -260 0
-308 304 0
-308 305 0
308 -304 -305 0
309 -307 0
309 -308 0
-309 307 308 0
-310 230 261 0
-310 -230 -261 0
310 -230 261 0
310 230 -261 0
-311 310 309 0
-311 -310 -309 0
311 -310 309 0
311 310 -309 0
-312 230 0
-312 261 0
312 -230 -261 0
-313 309 0
-313 310 0
313 -309 -310 0
314 -312 0
314 -313 0
-314 312 313 0
-315 231 262 0
-315 -231 -262 0
315 -231 262 0
315 231 -262 0
-316 315 314 0
-316 -315 -314 0
316 -315 314 0
316 315 -314 0
-317 231 0
-317 262 0
317 -231 -262 0
-318 314 0
-318 315 0
318 -314 -315 0
319 -317 0
319 -318 0
-319 317 318 0
-320 232 263 0
-320 -232 -263 0
320 -232 263 0
320 232 -263 0
-321 320 319 0
-321 -320 -319 0
321 -320 319 0
321 320 -319 0
-322 232 0
-322 263 0
322 -232 -263 0
-323 319 0
-323 320 0
323 -319 -320 0
324 -322 0
324 -323 0
-324 322 323 0
-325 233 264 0
-325 -233 -264 0
325 -233 264 0
325 233 -264 0
-326 325 324 0
-326 -325 -324 0
326 -325 324 0
326 325 -324 0
-327 233 0
-327 264 0
327 -233 -264 0
-328 324 0
-328 325 0
328 -324 -325 0
329 -327 0
329 -328 0
-329 327 328 0
-330 234 265 0
-330 -234 -265 0
330 -234 265 0
330 234 -265 0
-331 330 329 0
-331 -330 -329 0
331 -330 329 0
331 330 -329 0
-332 234 0
-332 265 0
332 -234 -265 0
-333 329 0
-333 330 0
333 -329 -330 0
334 -332 0
334 -333 0
-334 332 333 0
-335 235 266 0
-335 -235 -266 0
335 -235 266 0
335 235 -266 0
-336 335 334 0
-336 -335 -334 0
336 -335 334 0
336 335 -334 0
-337 235 0
-337 266 0
337 -235 -266 0
-338 334 0
-338 335 0
338 -334 -335 0
339 -337 0
339 -338 0
-339 337 338 0
-340 236 267 0
-340 -236 -267 0
340 -236 267 0
340 236 -267 0
-341 340 339 0
-341 -340 -339 0
341 -340 339 0
341 340 -339 0
-342 236 0
-342 267 0
342 -236 -267 0
-343 339 0
-343 340 0
343 -339 -340 0
344 -342 0
344 -343 0
-344 342 343 0
-345 237 268 0
-345 -237 -268 0
345 -237 268 0
345 237 -268 0
-346 345 344 0
-346 -345 -344 0
346 -345 344 0
346 345 -344 0
-347 237 0
-347 268 0
347 -237 -268 0
-348 344 0
-348 345 0
348 -344 -345 0
349 -347 0
349 -348 0
-349 347 348 0
-350 238 269 0
-350 -238 -269 0
350 -238 269 0
350 238 -269 0
-351 350 349 0
-351 -350 -349 0
351 -350 349 0
351 350 -349 0
-352 238 0
-352 269 0
352 -238 -269 0
-353 349 0
-353 350 0
353 -349 -350 0
354 -352 0
354 -353 0
-354 352 353 0
-355 239 270 0
-355 -239 -270 0
355 -239 270 0
355 239 -270 0
-356 355 354 0
-356 -355 -354 0
356 -355 354 0
356 355 -354 0
-357 239 0
-357 270 0
357 -239 -270 0
-358 354 0
-358 355 0
358 -354 -355 0
359 -357 0
359 -358 0
-359 357 358 0
-360 240 271 0
-360 -240 -271 0
360 -240 271 0
360 240 -271 0
-361 360 359 0
-361 -360 -359 0
361 -360 359 0
361 360 -359 0
-362 240 0
-362 271 0
362 -240 -271 0
-363 359 0
-363 360 0
363 -359 -360 0
364 -362 0
364 -363 0
-364 362 363 0
-365 241 272 0
-365 -241 -272 0
365 -241 272 0
365 241 -272 0
-366 365 364 0
-366 -365 -364 0
366 -365 364 0
366 365 -364 0
-367 241 0
-367 272 0
367 -241 -272 0
-368 364 0
-368 365 0
368 -364 -365 0
369 -367 0
369 -368 0
-369 367 368 0
-370 242 273 0
-370 -242 -273 0
370 -242 273 0
370 242 -273 0
-371 370 369 0
-371 -370 -369 0
371 -370 369 0
371 370 -369 0
-372 242 0
-372 273 0
372 -242 -273 0
-373 369 0
-373 370 0
373 -369 -370 0
374 -372 0
374 -373 0
-374 372 373 0
-375 243 274 0
-375 -243 -274 0
375 -243 274 0
375 243 -274 0
-376 375 374 0
-376 -375 -374 0
376 -375 374 0
376 375 -374 0
-377 243 0
-377 274 0
377 -243 -274 0
-378 374 0
-378 375 0
378 -374 -375 0
379 -377 0
379 -378 0
-379 377 378 0
-380 244 275 0
-380 -244 -275 0
380 -244 275 0
380 244 -275 0
-381 380 379 0
-381 -380 -379 0
381 -380 379 0
381 380 -379 0
-382 244 0
-382 275 0
382 -244 -275 0
-383 379 0
-383 380 0
383 -379 -380 0
384 -382 0
384 -383 0
-384 382 383 0
-385 245 276 0
-385 -245 -276 0
385 -245 276 0
385 245 -276 0
-386 385 384 0
-386 -385 -384 0
386 -385 384 0
386 385 -384 0
-387 245 0
-387 276 0
387 -245 -276 0
-388 384 0
-388 385 0
388 -384 -385 0
389 -387 0
389 -388 0
-389 387 388 0
-390 246 277 0
-390 -246 -277 0
390 -246 277 0
390 246 -277 0
-391 390 389 0
-391 -390 -389 0
391 -390 389 0
391 390 -389 0
-392 246 0
-392 277 0
392 -246 -277 0
-393 389 0
-393 390 0
393 -389 -390 0
394 -392 0
394 -393 0
-394 392 393 0
-395 247 278 0
-395 -247 -278 0
395 -247 278 0
395 247 -278 0
-396 395 394 0
-396 -395 -394 0
396 -395 394 0
396 395 -394 0
-397 247 0
-397 278 0
397 -247 -278 0
-398 394 0
-398 395 0
398 -394 -395 0
399 -397 0
399 -398 0
-399 397 398 0
-400 248 279 0
-400 -248 -279 0
400 -248 279 0
400 248 -279 0
-401 400 399 0
-401 -400 -399 0
401 -400 399 0
401 400 -399 0
-402 248 0
-402 279 0
402 -248 -279 0
-403 399 0
-403 400 0
403 -399 -400 0
404 -402 0
404 -403 0
-404 402 403 0
-405 249 280 0
-405 -249 -280 0
405 -249 280 0
405 249 -280 0
-406 405 404 0
-406 -405 -404 0
406 -405 404 0
406 405 -404 0
-407 249 0
-407 280 0
407 -249 -280 0
-408 404 0
-408 405 0
408 -404 -405 0
409 -407 0
409 -408 0
-409 407 408 0
-410 250 281 0
-410 -250 -281 0
410 -250 281 0
410 250 -281 0
-411 410 409 0
-411 -410 -409 0
411 -410 409 0
411 410 -409 0
-412 250 0
-412 281 0
412 -250 -281 0
-413 409 0
-413 410 0
413 -409 -410 0
414 -412 0
414 -413 0
-414 412 413 0
-415 251 282 0
-415 -251 -282 0
415 -251 282 0
415 251 -282 0
-416 415 414 0
-416 -415 -414 0
416 -415 414 0
416 415 -414 0
-417 251 0
-417 282 0
417 -251 -282 0
-418 414 0
-418 415 0
418 -414 -415 0
419 -417 0
419 -418 0
-419 417 418 0
-420 252 283 0
-420 -252 -283 0
420 -252 283 0
420 252 -283 0
-421 420 419 0
-421 -420 -419 0
421 -420 419 0
421 420 -419 0
-422 252 0
-422 283 0
422 -252 -283 0
-423 419 0
-423 420 0
423 -419 -420 0
424 -422 0
424 -423 0
-424 422 423 0
-425 253 284 0
-425 -253 -284 0
425 -253 284 0
425 253 -284 0
-426 425 424 0
-426 -425 -424 0
426 -425 424 0
426 425 -424 0
-427 253 0
-427 284 0
427 -253 -284 0
-428 424 0
-428 425 0
428 -424 -425 0
429 -427 0
429 -428 0
-429 427 428 0
-430 254 285 0
-430 -254 -285 0
430 -254 285 0
430 254 -285 0
-431 430 429 0
-431 -430 -429 0
431 -430 429 0
431 430 -429 0
-432 254 0
-432 285 0
432 -254 -285 0
-433 429 0
-433 430 0
433 -429 -430 0
434 -432 0
434 -433 0
-434 432 433 0
-435 255 286 0
-435 -255 -286 0
435 -255 286 0
435 255 -286 0
-436 435 434 0
-436 -435 -434 0
436 -435 434 0
436 435 -434 0
-437 255 0
-437 286 0
437 -255 -286 0
-438 434 0
-438 435 0
438 -434 -435 0
439 -437 0
439 -438 0
-439 437 438 0
-440 256 287 0
-440 -256 -287 0
440 -256 287 0
440 256 -287 0
-441 440 439 0
-441 -440 -439 0
441 -440 439 0
441 440 -439 0
-442 256 0
-442 287 0
442 -256 -287 0
-443 439 0
-443 440 0
443 -439 -440 0
444 -442 0
444 -443 0
-444 442 443 0
-445 257 288 0
-445 -257 -288 0
445 -257 288 0
445 257 -288 0
-446 445 444 0
-446 -445 -444 0
446 -445 444 0
446 445 -444 0
-447 257 0
-447 288 0
447 -257 -288 0
-448 444 0
-448 445 0
448 -444 -445 0
449 -447 0
449 -448 0
-449 447 448 0
-450 67 291 0
-450 -67 -291 0
450 -67 291 0
450 67 -291 0
-451 72 296 0
-451 -72 -296 0
451 -72 296 0
451 72 -296 0
-452 77 301 0
-452 -77 -301 0
452 -77 301 0
452 77 -301 0
-453 82 306 0
-453 -82 -306 0
453 -82 306 0
453 82 -306 0
-454 87 311 0
-454 -87 -311 0
454 -87 311 0
454 87 -311 0
-455 92 316 0
-455 -92 -316 0
455 -92 316 0
455 92 -316 0
-456 97 321 0
-456 -97 -321 0
456 -97 321 0
456 97 -321 0
-457 102 326 0
-457 -102 -326 0
457 -102 326 0
457 102 -326 0
-458 107 331 0
-458 -107 -331 0
458 -107 331 0
458 107 -331 0
-459 112 336 0
-459 -112 -336 0
459 -112 336 0
459 112 -336 0
-460 117 341 0
-460 -117 -341 0
460 -117 341 0
460 117 -341 0
-461 122 346 0
-461 -122 -346 0
461 -122 346 0
461 122 -346 0
-462 127 351 0
-462 -127 -351 0
462 -127 351 0
462 127 -351 0
-463 132 356 0
-463 -132 -356 0
463 -132 356 0
463 132 -356 0
-464 137 361 0
-464 -137 -361 0
464 -137 361 0
464 137 -361 0
-465 142 366 0
-465 -142 -366 0
465 -142 366 0
465 142 -366 0
-466 147 371 0
-466 -147 -371 0
466 -147 371 0
466 147 -371 0
-467 152 376 0
-467 -152 -376 0
467 -152 376 0
467 152 -376 0
-468 157 381 0
-468 -157 -381 0
468 -157 381 0
468 157 -381 0
-469 162 386 0
-469 -162 -386 0
469 -162 386 0
469 162 -386 0
-470 167 391 0
-470 -167 -391 0
470 -167 391 0
470 167 -391 0
-471 172 396 0
-471 -172 -396 0
471 -172 396 0
471 172 -396 0
-472 177 401 0
-472 -177 -401 0
472 -177 401 0
472 177 -401 0
-473 182 406 0
-473 -182 -406 0
473 -182 406 0
473 182 -406 0
-474 187 411 0
-474 -187 -411 0
474 -187 411 0
474 187 -411 0
-475 192 416 0
-475 -192 -416 0
475 -192 416 0
475 192 -416 0
-476 197 421 0
-476 -197 -421 0
476 -197 421 0
476 197 -421 0
-477 202 426 0
-477 -202 -426 0
477 -202 426 0
477 202 -426 0
-478 207 431 0
-478 -207 -431 0
478 -207 431 0
478 207 -431 0
-479 212 436 0
-479 -212 -436 0
479 -212 436 0
479 212 -436 0
-480 217 441 0
-480 -217 -441 0
480 -217 441 0
480 217 -441 0
-481 222 446 0
-481 -222 -446 0
481 -222 446 0
481 222 -446 0
482 -450 0
482 -451 0
-482 450 451 0
483 -482 0
483 -452 0
-483 482 452 0
484 -483 0
484 -453 0
-484 483 453 0
485 -484 0
485 -454 0
-485 484 454 0
486 -485 0
486 -455 0
-486 485 455 0
487 -486 0
487 -456 0
-487 486 456 0
488 -487 0
488 -457 0
-488 487 457 0
489 -488 0
489 -458 0
-489 488 458 0
490 -489 0
490 -459 0
-490 489 459 0
491 -490 0
491 -460 0
-491 490 460 0
492 -491 0
492 -461 0
-492 491 461 0
493 -492 0
493 -462 0
-493 492 462 0
494 -493 0
494 -463 0
-494 493 463 0
495 -494 0
495 -464 0
-495 494 464 0
496 -495 0
496 -465 0
-496 495 465 0
497 -496 0
497 -466 0
-497 496 466 0
498 -497 0
498 -467 0
-498 497 467 0
499 -498 0
499 -468 0
-499 498 468 0
500 -499 0
500 -469 0
-500 499 469 0
501 -500 0
501 -470 0
-501 500 470 0
502 -501 0
502 -471 0
-502 501 471 0
503 -502 0
503 -472 0
-503 502 472 0
504 -503 0
504 -473 0
-504 503 473 0
505 -504 0
505 -474 0
-505 504 474 0
506 -505 0
506 -475 0
-506 505 475 0
507 -506 0
507 -476 0
-507 506 476 0
508 -507 0
508 -477 0
-508 507 477 0
509 -508 0
509 -478 0
-509 508 478 0
510 -509 0
510 -479 0
-510 509 479 0
511 -510 0
511 -480 0
-511 510 480 0
512 -511 0
512 -481 0
-512 511 481 0
512 0
